12° run output:
{
    "Function": "ClusterB500.tsp",
    "Problem dimension": [
        53,
        32,
        100,
        255,
        14,
        266,
        130,
        383,
        71,
        131,
        44,
        162,
        460,
        355,
        90,
        280,
        461,
        375,
        379,
        351,
        265,
        94,
        73,
        52,
        188,
        174,
        371,
        425,
        189,
        294,
        354,
        377,
        31,
        239,
        0,
        156,
        158,
        356,
        167,
        11,
        58,
        231,
        163,
        185,
        473,
        337,
        227,
        143,
        277,
        169,
        30,
        80,
        422,
        386,
        198,
        358,
        103,
        125,
        254,
        313,
        200,
        229,
        311,
        477,
        81,
        61,
        359,
        93,
        470,
        360,
        490,
        112,
        116,
        390,
        348,
        344,
        413,
        346,
        9,
        282,
        62,
        283,
        430,
        407,
        111,
        74,
        166,
        290,
        285,
        178,
        427,
        50,
        459,
        241,
        475,
        173,
        105,
        423,
        153,
        464,
        221,
        317,
        463,
        205,
        106,
        124,
        102,
        25,
        20,
        245,
        191,
        492,
        180,
        292,
        202,
        498,
        224,
        258,
        7,
        35,
        213,
        304,
        331,
        211,
        362,
        47,
        132,
        399,
        76,
        65,
        307,
        499,
        187,
        482,
        372,
        293,
        222,
        478,
        39,
        287,
        24,
        494,
        10,
        462,
        456,
        445,
        133,
        315,
        54,
        333,
        26,
        22,
        465,
        385,
        368,
        485,
        491,
        448,
        419,
        12,
        300,
        468,
        436,
        417,
        141,
        78,
        405,
        454,
        472,
        243,
        484,
        421,
        286,
        273,
        483,
        431,
        275,
        181,
        89,
        63,
        67,
        119,
        97,
        396,
        384,
        46,
        183,
        272,
        398,
        303,
        281,
        232,
        157,
        471,
        87,
        488,
        416,
        209,
        487,
        349,
        139,
        104,
        381,
        335,
        219,
        201,
        2,
        21,
        284,
        481,
        128,
        367,
        301,
        6,
        55,
        223,
        342,
        314,
        451,
        75,
        37,
        127,
        206,
        310,
        212,
        441,
        453,
        197,
        140,
        126,
        259,
        408,
        92,
        345,
        41,
        145,
        321,
        15,
        99,
        388,
        450,
        138,
        147,
        110,
        150,
        228,
        155,
        240,
        363,
        404,
        83,
        469,
        252,
        343,
        45,
        170,
        486,
        177,
        118,
        267,
        70,
        168,
        467,
        107,
        332,
        8,
        176,
        114,
        415,
        136,
        208,
        382,
        326,
        134,
        193,
        49,
        230,
        237,
        120,
        302,
        196,
        480,
        466,
        395,
        295,
        297,
        387,
        256,
        402,
        389,
        57,
        199,
        95,
        4,
        64,
        175,
        446,
        253,
        458,
        373,
        325,
        328,
        33,
        135,
        444,
        406,
        28,
        91,
        353,
        380,
        23,
        113,
        40,
        96,
        250,
        497,
        68,
        216,
        279,
        323,
        235,
        207,
        182,
        435,
        420,
        318,
        123,
        327,
        159,
        298,
        51,
        233,
        447,
        225,
        144,
        56,
        34,
        369,
        148,
        195,
        278,
        43,
        270,
        236,
        108,
        137,
        316,
        122,
        308,
        426,
        341,
        248,
        312,
        392,
        60,
        291,
        203,
        18,
        438,
        38,
        29,
        260,
        210,
        146,
        226,
        101,
        376,
        437,
        306,
        449,
        238,
        370,
        82,
        340,
        400,
        172,
        433,
        414,
        428,
        109,
        365,
        324,
        66,
        3,
        261,
        217,
        154,
        434,
        350,
        296,
        339,
        234,
        86,
        204,
        142,
        190,
        397,
        5,
        334,
        366,
        418,
        17,
        220,
        129,
        117,
        249,
        164,
        79,
        347,
        121,
        338,
        429,
        115,
        443,
        474,
        378,
        171,
        424,
        27,
        489,
        361,
        271,
        1,
        152,
        330,
        289,
        440,
        496,
        319,
        19,
        218,
        184,
        299,
        179,
        264,
        391,
        305,
        288,
        88,
        85,
        432,
        401,
        251,
        42,
        476,
        269,
        276,
        409,
        457,
        320,
        374,
        493,
        246,
        479,
        357,
        192,
        72,
        274,
        439,
        77,
        268,
        322,
        352,
        13,
        151,
        59,
        452,
        263,
        257,
        186,
        403,
        98,
        262,
        161,
        69,
        165,
        16,
        455,
        329,
        149,
        309,
        194,
        410,
        215,
        412,
        214,
        244,
        364,
        242,
        442,
        336,
        48,
        84,
        495,
        393,
        411,
        160,
        394,
        247,
        36
    ],
    "Global Optimum": 0,
    "Algorithm": "Genetic algorithm",
    "Parameters": {
        "population": 30,
        "offspring": 30,
        "mutation probability": 0.002,
        "crossover probability": 0.9
    },
    "Fitness": 567887,
    "Solution": [
        53,
        32,
        100,
        255,
        14,
        266,
        130,
        383,
        71,
        131,
        44,
        162,
        460,
        355,
        90,
        280,
        461,
        375,
        379,
        351,
        265,
        94,
        73,
        52,
        188,
        174,
        371,
        425,
        189,
        294,
        354,
        377,
        31,
        239,
        0,
        156,
        158,
        356,
        167,
        11,
        58,
        231,
        163,
        185,
        473,
        337,
        227,
        143,
        277,
        169,
        30,
        80,
        422,
        386,
        198,
        358,
        103,
        125,
        254,
        313,
        200,
        229,
        311,
        477,
        81,
        61,
        359,
        93,
        470,
        360,
        490,
        112,
        116,
        390,
        348,
        344,
        413,
        346,
        9,
        282,
        62,
        283,
        430,
        407,
        111,
        74,
        166,
        290,
        285,
        178,
        427,
        50,
        459,
        241,
        475,
        173,
        105,
        423,
        153,
        464,
        221,
        317,
        463,
        205,
        106,
        124,
        102,
        25,
        20,
        245,
        191,
        492,
        180,
        292,
        202,
        498,
        224,
        258,
        7,
        35,
        213,
        304,
        331,
        211,
        362,
        47,
        132,
        399,
        76,
        65,
        307,
        499,
        187,
        482,
        372,
        293,
        222,
        478,
        39,
        287,
        24,
        494,
        10,
        462,
        456,
        445,
        133,
        315,
        54,
        333,
        26,
        22,
        465,
        385,
        368,
        485,
        491,
        448,
        419,
        12,
        300,
        468,
        436,
        417,
        141,
        78,
        405,
        454,
        472,
        243,
        484,
        421,
        286,
        273,
        483,
        431,
        275,
        181,
        89,
        63,
        67,
        119,
        97,
        396,
        384,
        46,
        183,
        272,
        398,
        303,
        281,
        232,
        157,
        471,
        87,
        488,
        416,
        209,
        487,
        349,
        139,
        104,
        381,
        335,
        219,
        201,
        2,
        21,
        284,
        481,
        128,
        367,
        301,
        6,
        55,
        223,
        342,
        314,
        451,
        75,
        37,
        127,
        206,
        310,
        212,
        441,
        453,
        197,
        140,
        126,
        259,
        408,
        92,
        345,
        41,
        145,
        321,
        15,
        99,
        388,
        450,
        138,
        147,
        110,
        150,
        228,
        155,
        240,
        363,
        404,
        83,
        469,
        252,
        343,
        45,
        170,
        486,
        177,
        118,
        267,
        70,
        168,
        467,
        107,
        332,
        8,
        176,
        114,
        415,
        136,
        208,
        382,
        326,
        134,
        193,
        49,
        230,
        237,
        120,
        302,
        196,
        480,
        466,
        395,
        295,
        297,
        387,
        256,
        402,
        389,
        57,
        199,
        95,
        4,
        64,
        175,
        446,
        253,
        458,
        373,
        325,
        328,
        33,
        135,
        444,
        406,
        28,
        91,
        353,
        380,
        23,
        113,
        40,
        96,
        250,
        497,
        68,
        216,
        279,
        323,
        235,
        207,
        182,
        435,
        420,
        318,
        123,
        327,
        159,
        298,
        51,
        233,
        447,
        225,
        144,
        56,
        34,
        369,
        148,
        195,
        278,
        43,
        270,
        236,
        108,
        137,
        316,
        122,
        308,
        426,
        341,
        248,
        312,
        392,
        60,
        291,
        203,
        18,
        438,
        38,
        29,
        260,
        210,
        146,
        226,
        101,
        376,
        437,
        306,
        449,
        238,
        370,
        82,
        340,
        400,
        172,
        433,
        414,
        428,
        109,
        365,
        324,
        66,
        3,
        261,
        217,
        154,
        434,
        350,
        296,
        339,
        234,
        86,
        204,
        142,
        190,
        397,
        5,
        334,
        366,
        418,
        17,
        220,
        129,
        117,
        249,
        164,
        79,
        347,
        121,
        338,
        429,
        115,
        443,
        474,
        378,
        171,
        424,
        27,
        489,
        361,
        271,
        1,
        152,
        330,
        289,
        440,
        496,
        319,
        19,
        218,
        184,
        299,
        179,
        264,
        391,
        305,
        288,
        88,
        85,
        432,
        401,
        251,
        42,
        476,
        269,
        276,
        409,
        457,
        320,
        374,
        493,
        246,
        479,
        357,
        192,
        72,
        274,
        439,
        77,
        268,
        322,
        352,
        13,
        151,
        59,
        452,
        263,
        257,
        186,
        403,
        98,
        262,
        161,
        69,
        165,
        16,
        455,
        329,
        149,
        309,
        194,
        410,
        215,
        412,
        214,
        244,
        364,
        242,
        442,
        336,
        48,
        84,
        495,
        393,
        411,
        160,
        394,
        247,
        36
    ],
    "Nb of functions evaluations": 400020,
    "Computational time in seconds": 1774.4176697731018,
    "Stopping criterion in evaluations": 400000
}